
Value of objective function: 0.09300814

Actual values of the variables:
pL1_div_from_law        0.0930081
comp_pos0                       0
comp_neg0                       0
comp_pos1                       0
comp_neg1                       0
comp_pos2                       0
comp_neg2                       0
comp_pos3                       0
comp_neg3                       0
comp_pos4                       0
comp_neg4                       0
comp_pos5                       0
comp_neg5                       0
comp_pos6               0.0930081
comp_neg6                       0
comp_pos7                       0
comp_neg7                       0
comp_pos8                       0
comp_neg8                       0
comp_pos9                       0
comp_neg9                       0
comp_pos10                      0
comp_neg10                      0
comp_pos11                      0
comp_neg11                      0
comp_pos12                      0
comp_neg12                      0
comp_pos13                      0
comp_neg13                      0
z_c0_t0               1.32138e+10
p0_c0_t0              1.43104e+09
p1_c0_t0              1.06335e+08
p2_c0_t0              1.12949e+10
p3_c0_t0              3.81534e+08
diff0                           0
normdiff0                       0
z_c0_t1               1.47752e+10
p0_c0_t1              1.25593e+09
p1_c0_t1              1.16885e+08
p2_c0_t1              1.25378e+10
p3_c0_t1               8.6453e+08
diff1                           0
normdiff1                       0
z_c1_t0               1.65566e+10
p0_c1_t0              1.46135e+09
p1_c1_t0              1.37998e+08
p2_c1_t0              1.47869e+10
p3_c1_t0              1.70339e+08
diff2                           0
normdiff2                       0
z_c1_t1               1.94959e+10
p0_c1_t1              1.48748e+09
p1_c1_t1              1.92432e+08
p2_c1_t1              1.75975e+10
p3_c1_t1              2.18502e+08
diff3                           0
normdiff3                       0
z_c2_t0               7.24754e+09
p0_c2_t0              4.93662e+08
p1_c2_t0              5.63122e+07
p2_c2_t0              6.54699e+09
p3_c2_t0              1.50576e+08
diff4                           0
normdiff4                       0
z_c2_t1               7.97123e+09
p0_c2_t1              4.04758e+08
p1_c2_t1              6.45183e+07
p2_c2_t1              7.28866e+09
p3_c2_t1              2.13286e+08
diff5                           0
normdiff5                       0
z_c3_t0               1.22612e+10
p0_c3_t0              8.93151e+08
p1_c3_t0              9.53191e+07
p2_c3_t0              1.19706e+10
p3_c3_t0              4.42456e+08
diff6                 1.14039e+09
normdiff6               0.0930081
z_c3_t1               1.42798e+10
p0_c3_t1              1.02034e+09
p1_c3_t1              9.56852e+07
p2_c3_t1              1.25245e+10
p3_c3_t1              6.39216e+08
diff7                           0
normdiff7                       0
z_c4_t0               7.97197e+09
p0_c4_t0              3.94215e+08
p1_c4_t0              1.06663e+08
p2_c4_t0              7.38714e+09
p3_c4_t0              8.39483e+07
diff8                           0
normdiff8                       0
z_c4_t1                8.9819e+09
p0_c4_t1              4.11711e+08
p1_c4_t1              9.62536e+07
p2_c4_t1              8.37283e+09
p3_c4_t1              1.01107e+08
diff9                           0
normdiff9                       0
z_c5_t0               1.00642e+10
p0_c5_t0              7.02135e+08
p1_c5_t0              8.99991e+07
p2_c5_t0               9.2217e+09
p3_c5_t0              5.03208e+07
diff10                          0
normdiff10                      0
z_c5_t1                1.2016e+10
p0_c5_t1              5.18074e+08
p1_c5_t1              8.82549e+07
p2_c5_t1              1.12056e+10
p3_c5_t1              2.04066e+08
diff11                          0
normdiff11                      0
z_c6_t0               1.81204e+10
p0_c6_t0              1.26935e+09
p1_c6_t0              1.13699e+08
p2_c6_t0               1.6573e+10
p3_c6_t0              1.64267e+08
diff12                          0
normdiff12                      0
z_c6_t1               2.06345e+10
p0_c6_t1              1.37854e+09
p1_c6_t1              1.03172e+08
p2_c6_t1              1.90114e+10
p3_c6_t1              1.41343e+08
diff13                          0
normdiff13                      0
